(set-info :smt-lib-version 2.6)
(set-logic UF)
(set-info :source |Benchmarks from the paper: "Extending Sledgehammer with SMT Solvers" by Jasmin Blanchette, Sascha Bohme, and Lawrence C. Paulson, CADE 2011.  Translated to SMT2 by Andrew Reynolds and Morgan Deters.|)
(set-info :category "industrial")
(set-info :status unsat)
(declare-sort S1 0)
(declare-sort S2 0)
(declare-sort S3 0)
(declare-sort S4 0)
(declare-sort S5 0)
(declare-sort S6 0)
(declare-sort S7 0)
(declare-sort S8 0)
(declare-sort S9 0)
(declare-sort S10 0)
(declare-sort S11 0)
(declare-sort S12 0)
(declare-sort S13 0)
(declare-sort S14 0)
(declare-sort S15 0)
(declare-sort S16 0)
(declare-sort S17 0)
(declare-sort S18 0)
(declare-sort S19 0)
(declare-sort S20 0)
(declare-sort S21 0)
(declare-sort S22 0)
(declare-fun f1 () S1)
(declare-fun f2 () S1)
(declare-fun f3 (S2 S3 S4) S1)
(declare-fun f4 (S5 S4) S2)
(declare-fun f5 (S6 S7) S5)
(declare-fun f6 (S8 S2) S6)
(declare-fun f7 () S8)
(declare-fun f8 () S2)
(declare-fun f9 () S7)
(declare-fun f10 () S4)
(declare-fun f11 (S9 S3) S3)
(declare-fun f12 (S10 S3) S9)
(declare-fun f13 () S10)
(declare-fun f14 (S11 S7) S3)
(declare-fun f15 (S12 S3) S11)
(declare-fun f16 () S12)
(declare-fun f17 () S3)
(declare-fun f18 () S11)
(declare-fun f19 (S13 S4) S4)
(declare-fun f20 (S14 S15) S13)
(declare-fun f21 (S16 S17) S14)
(declare-fun f22 () S16)
(declare-fun f23 () S17)
(declare-fun f24 () S15)
(declare-fun f25 () S4)
(declare-fun f26 (S3) S1)
(declare-fun f27 () S3)
(declare-fun f28 (S17 S4) S13)
(declare-fun f29 () S4)
(declare-fun f30 (S2 S7) S4)
(declare-fun f31 () S7)
(declare-fun f32 () S7)
(declare-fun f33 () S3)
(declare-fun f34 () S3)
(declare-fun f35 (S2 S18 S15) S1)
(declare-fun f36 () S18)
(declare-fun f37 (S19 S18) S3)
(declare-fun f38 (S20 S3) S19)
(declare-fun f39 (S21 S10) S20)
(declare-fun f40 () S21)
(declare-fun f41 () S18)
(declare-fun f42 (S22 S3) S12)
(declare-fun f43 () S22)
(assert (not (= f1 f2)))
(assert (not (= (f3 (f4 (f5 (f6 f7 f8) f9) f10) (f11 (f12 f13 (f14 (f15 f16 f17) f9)) (f14 f18 f9)) (f19 (f20 (f21 f22 f23) f24) f25)) f1)))
(assert (= (f26 f27) f1))
(assert (= (f26 f17) f1))
(assert (= (f3 f8 f17 (f19 (f28 f23 f10) (f19 (f20 (f21 f22 f23) f24) f25))) f1))
(assert (= (f3 f8 f17 f29) f1))
(assert (forall ((?v0 S2) (?v1 S3) (?v2 S4) (?v3 S7) (?v4 S4)) (=> (= (f3 ?v0 ?v1 ?v2) f1) (= (f3 (f4 (f5 (f6 f7 ?v0) ?v3) ?v4) (f14 (f15 f16 ?v1) ?v3) ?v2) f1))))
(assert (= (f26 (f11 (f12 f13 (f14 (f15 f16 f17) f9)) (f14 f18 f9))) f1))
(assert (forall ((?v0 S2) (?v1 S3) (?v2 S4) (?v3 S4) (?v4 S3)) (=> (= (f3 ?v0 ?v1 (f19 (f28 f23 ?v2) ?v3)) f1) (=> (= (f3 ?v0 ?v4 ?v2) f1) (= (f3 ?v0 (f11 (f12 f13 ?v1) ?v4) ?v3) f1)))))
(assert (= f29 (f19 (f28 f23 f10) (f19 (f20 (f21 f22 f23) f24) f25))))
(assert (= (f26 (f14 (f15 f16 f17) f9)) f1))
(assert (forall ((?v0 S2) (?v1 S7) (?v2 S4)) (=> (= (f30 ?v0 ?v1) ?v2) (= (f3 ?v0 (f14 f18 ?v1) ?v2) f1))))
(assert (forall ((?v0 S2) (?v1 S7) (?v2 S4)) (=> (= (f3 ?v0 (f14 f18 ?v1) ?v2) f1) (=> (=> (= (f30 ?v0 ?v1) ?v2) false) false))))
(assert (= (f3 (f4 (f5 (f6 f7 f8) f31) f29) (f14 f18 f32) (f19 (f28 f23 f10) (f19 (f20 (f21 f22 f23) f24) f25))) f1))
(assert (forall ((?v0 S2) (?v1 S3) (?v2 S3) (?v3 S4)) (=> (= (f3 ?v0 (f11 (f12 f13 ?v1) ?v2) ?v3) f1) (=> (forall ((?v4 S4)) (=> (= (f3 ?v0 ?v1 (f19 (f28 f23 ?v4) ?v3)) f1) (=> (= (f3 ?v0 ?v2 ?v4) f1) false))) false))))
(assert (forall ((?v0 S3) (?v1 S3) (?v2 S7)) (= (f14 (f15 f16 (f11 (f12 f13 ?v0) ?v1)) ?v2) (f11 (f12 f13 (f14 (f15 f16 ?v0) ?v2)) (f14 (f15 f16 ?v1) ?v2)))))
(assert (forall ((?v0 S7) (?v1 S3) (?v2 S3)) (not (= (f14 f18 ?v0) (f11 (f12 f13 ?v1) ?v2)))))
(assert (forall ((?v0 S3) (?v1 S3) (?v2 S7)) (not (= (f11 (f12 f13 ?v0) ?v1) (f14 f18 ?v2)))))
(assert (= (f26 f33) f1))
(assert (= f32 f31))
(assert (forall ((?v0 S3) (?v1 S7)) (=> (= (f26 ?v0) f1) (= (f26 (f14 (f15 f16 ?v0) ?v1)) f1))))
(assert (= (f3 (f4 (f5 (f6 f7 f8) f31) f29) f34 f10) f1))
(assert (= (f3 (f4 (f5 (f6 f7 f8) f31) f29) (f11 (f12 f13 (f14 f18 f32)) f34) (f19 (f20 (f21 f22 f23) f24) f25)) f1))
(assert (forall ((?v0 S7)) (= (f26 (f14 f18 ?v0)) f1)))
(assert (forall ((?v0 S3) (?v1 S7)) (=> (= (f26 ?v0) f1) (= (f26 (f11 (f12 f13 ?v0) (f14 f18 ?v1))) f1))))
(assert (forall ((?v0 S3) (?v1 S3) (?v2 S3) (?v3 S3)) (= (= (f11 (f12 f13 ?v0) ?v1) (f11 (f12 f13 ?v2) ?v3)) (and (= ?v0 ?v2) (= ?v1 ?v3)))))
(assert (forall ((?v0 S7) (?v1 S7)) (= (= (f14 f18 ?v0) (f14 f18 ?v1)) (= ?v0 ?v1))))
(assert (forall ((?v0 S4) (?v1 S4) (?v2 S4) (?v3 S4)) (= (= (f19 (f28 f23 ?v0) ?v1) (f19 (f28 f23 ?v2) ?v3)) (and (= ?v0 ?v2) (= ?v1 ?v3)))))
(assert (forall ((?v0 S7) (?v1 S7) (?v2 S2) (?v3 S4)) (=> (= ?v0 ?v1) (= (f30 (f4 (f5 (f6 f7 ?v2) ?v0) ?v3) ?v1) ?v3))))
(assert (=> (forall ((?v0 S4)) (let ((?v_0 (f4 (f5 (f6 f7 f8) f31) f29))) (=> (= (f3 ?v_0 (f14 f18 f32) (f19 (f28 f23 ?v0) (f19 (f20 (f21 f22 f23) f24) f25))) f1) (=> (= (f3 ?v_0 f34 ?v0) f1) false)))) false))
(assert (= (f35 (f4 (f5 (f6 f7 f8) f31) f29) f36 f24) f1))
(assert (= (f3 (f4 (f5 (f6 f7 f8) f31) f29) (f37 (f38 (f39 f40 f13) (f14 f18 f32)) f41) f25) f1))
(assert (forall ((?v0 S4) (?v1 S4) (?v2 S3) (?v3 S2) (?v4 S7) (?v5 S4) (?v6 S3)) (=> (= f29 (f19 (f28 f23 ?v0) ?v1)) (=> (= (f26 ?v2) f1) (=> (= (f3 (f4 (f5 (f6 f7 ?v3) ?v4) ?v1) ?v2 ?v5) f1) (=> (= (f26 ?v6) f1) (=> (= (f3 ?v3 ?v6 ?v1) f1) (= (f26 (f14 (f15 (f42 f43 ?v2) ?v6) ?v4)) f1))))))))
(assert (forall ((?v0 S4) (?v1 S4) (?v2 S3) (?v3 S2) (?v4 S7) (?v5 S4) (?v6 S3)) (=> (= f29 (f19 (f28 f23 ?v0) ?v1)) (=> (= (f26 ?v2) f1) (=> (= (f3 (f4 (f5 (f6 f7 ?v3) ?v4) ?v0) ?v2 ?v5) f1) (=> (= (f26 ?v6) f1) (=> (= (f3 ?v3 ?v6 ?v0) f1) (= (f26 (f14 (f15 (f42 f43 ?v2) ?v6) ?v4)) f1))))))))
(check-sat)
(exit)
